(set-info :Origin "This instance was generated by: BanditFuzz-- an RL fuzzer for SMT solvers" )
(set-info :Author "Joe Scott, Fed Mora, Vijay Ganesh" )
(set-info :Contact "Joe Scott, joseph.scott@uwaterloo.ca")
(set-logic QF_BV)
(declare-const bool_0 Bool)
(declare-const bool_1 Bool)
(declare-const bool_2 Bool)
(declare-const bool_3 Bool)
(declare-const bool_4 Bool)
(declare-const bv_0 (_ BitVec 32))
(declare-const bv_1 (_ BitVec 32))
(declare-const bv_2 (_ BitVec 32))
(declare-const bv_3 (_ BitVec 32))
(declare-const bv_4 (_ BitVec 32))
(assert (bvsgt (bvnor (bvor #xb1d2a1bb  #xda563c04 ) (bvashr bv_2 #x34563e06 )) (bvurem (bvshl bv_1 bv_3) (bvsub #xf03fa37c  #x013ae96f ))))
(assert (bvugt (bvsdiv (bvashr #xa5a1d886  bv_1) (bvnor bv_3 bv_1)) (bvadd (bvsdiv #x9666d6f8  bv_2) (bvurem #xea8bfd51  #x65831b5d ))))
(assert (not (bvsge (bvand bv_0 #xcdcd78f5 ) (bvnand #x17c43491  #x581cd2d0 ))))
(assert (and (or (bvsgt bv_2 bv_2) (bvsge #xc1889e41  bv_0)) (bvsge (bvsrem bv_0 bv_4) (bvsdiv #x9787950c  bv_1))))
(assert (xor (bvugt (bvxor #x0f66d917  #xeeb51be1 ) (bvxnor bv_0 bv_3)) (bvugt (bvnand #x7116d3cc  bv_1) (bvudiv #xe04873de  #x68d82b71 ))))
(check-sat)
(exit)
